param n := 2;

param m := 2;

param K := 50;

param a :=
1 	 0.172341
2 	 0.137136
;
 param A :=
[1, *, *]:  1	2	:=
1	0.865191	-0.868000	
2	0.393636	0.510926	

[2, *, *]:  1	2	:=
1	0.507752	0.423050	
2	0.846049	-0.751458	
;